SCIP version 5.0.0 [precision: 8 byte] [memory: block] [mode: optimized] [LP solver: NONE] [GitHash: 3bbd232]
Copyright (C) 2002-2017 Konrad-Zuse-Zentrum fuer Informationstechnik Berlin (ZIB)

External codes: 
  Readline EditLine w  GNU library for command line editing (gnu.org/s/readline)
  CppAD 20160000.1     Algorithmic Differentiation of C++ algorithms developed by B. Bell (www.coin-or.org/CppAD)
  ZLIB 1.2.5           General purpose compression library by J. Gailly and M. Adler (zlib.net)
  GMP 6.1.2            GNU Multiple Precision Arithmetic Library developed by T. Granlund (gmplib.org)

user parameter file <scip.set> not found - using default parameters

read problem <../../Split_data/output/breast/2/3_sample_breast.logreg>
============

File name	:	../../Split_data/output/breast/2/3_sample_breast.logreg
Problem name 	:	3_sample_breast
Number of data	:	155
Number of var	:	33
The given data has linear independence

[dim=1] time: 0.00358
[dim=2] time: 0.007664
[dim=3] time: 0.011312
[dim=4] time: 0.015222
[dim=5] time: 0.018833
[dim=6] time: 0.022937
[dim=7] time: 0.027096
[dim=8] time: 0.030877
[dim=9] time: 0.034445
[dim=10] time: 0.03797
[dim=11] time: 0.041471
[dim=12] time: 0.044448
[dim=13] time: 0.047209
[dim=14] time: 0.049691
[dim=15] Time of forward = 0.052242sec.
AIC: 121.087
k: 14

[dim=33] time: 0.012258
[dim=32] time: 0.022521
[dim=31] time: 0.031831
[dim=30] time: 0.042234
[dim=29] time: 0.052513
[dim=28] time: 0.068392
[dim=27] time: 0.079467
[dim=26] time: 0.087507
[dim=25] time: 0.09357
[dim=24] time: 0.099915
[dim=23] time: 0.106089
[dim=22] time: 0.111343
[dim=21] time: 0.117096
[dim=20] time: 0.121261
[dim=19] time: 0.1262
[dim=18] Time of backward = 0.13034sec.
AIC: 118.047
k: 19
